; benchmark generated from python API
(set-info :status unknown)
(declare-datatypes ((RealState 0)) (((RMk1 (rval1 Real)) (RMk2 (rval2 Real)))))
 (assert
 (forall ((|v9:0| Real) )(exists ((|v8:1_st| RealState) (val!810 Real) )(forall ((|v7:2| Real) )(exists ((|v6:3_st| RealState) (val!811 Real) )(forall ((|v5:4| Real) )(exists ((|v4:5_st| RealState) (val!812 Real) )(forall ((|v3:6| Real) )(exists ((|v2:7_st| RealState) (val!813 Real) )(forall ((|v1:8| Real) )(exists ((|v0:9_st| RealState) (val!814 Real) )(let ((?x889 (- 13.0)))
 (let (($x877 (<= (+ (+ (* 17.0 |v5:4|) (* (- 9.0) |v5:4|)) (* (- 2.0) |v3:6|)) ?x889)))
 (let ((?x975 (+ (+ (* (- 4.0) (rval2 |v0:9_st|)) (* (- 9.0) (rval2 |v4:5_st|))) (* (- 10.0) (rval2 |v8:1_st|)))))
 (let ((?x1281 (- 1.0)))
 (let (($x122 (<= (+ (+ (* 6.0 |v5:4|) (* 4.0 |v9:0|)) (* (- 15.0) (rval2 |v0:9_st|))) ?x1281)))
 (let (($x469 (<= (+ (+ (* 14.0 |v7:2|) (* 7.0 |v1:8|)) (* 12.0 (rval2 |v4:5_st|))) 19.0)))
 (let ((?x824 (rval2 |v8:1_st|)))
 (let ((?x1378 (* 20.0 ?x824)))
 (let (($x229 (<= (+ (+ (* 14.0 |v9:0|) (* (- 6.0) |v7:2|)) (* 16.0 |v9:0|)) 9.0)))
 (let (($x368 (and $x229 (<= (+ (+ (* ?x889 (rval2 |v6:3_st|)) (* 12.0 |v5:4|)) ?x1378) 5.0))))
 (let ((?x550 (- 12.0)))
 (let (($x723 (<= (+ (+ (* 7.0 (rval2 |v2:7_st|)) (* 4.0 |v1:8|)) (* 11.0 |v7:2|)) ?x550)))
 (let ((?x1135 (- 4.0)))
 (let ((?x862 (rval2 |v2:7_st|)))
 (let ((?x1035 (* 8.0 ?x862)))
 (let (($x868 (<= (+ (+ (* 11.0 (rval2 |v0:9_st|)) (* 3.0 (rval2 |v4:5_st|))) ?x1035) ?x1135)))
 (let (($x421 (or (or (and $x868 $x723) $x368) (and (and $x469 $x122) (and (<= ?x975 10.0) $x877)))))
 (let (($x221 (<= (+ (+ (* 18.0 ?x824) (* (- 6.0) (rval2 |v6:3_st|))) (* 7.0 |v7:2|)) 1.0)))
 (let ((?x1290 (- 2.0)))
 (let ((?x13 (+ (+ (* 9.0 |v7:2|) (* (- 9.0) (rval2 |v6:3_st|))) (* (- 8.0) |v1:8|))))
 (let ((?x842 (+ (+ (* 5.0 (rval2 |v0:9_st|)) (* (- 9.0) ?x824)) (* (- 7.0) |v5:4|))))
 (let ((?x1351 (+ (+ (* (- 14.0) (rval2 |v0:9_st|)) (* ?x1135 (rval2 |v0:9_st|))) (* (- 15.0) ?x824))))
 (let (($x1337 (<= (+ (+ (* 0.0 ?x824) (* (- 18.0) ?x824)) (* 14.0 |v5:4|)) 1.0)))
 (let ((?x1288 (* 2.0 ?x824)))
 (let ((?x1120 (+ (* 6.0 (rval2 |v0:9_st|)) ?x1288)))
 (let (($x1188 (and (<= (+ (+ (* 17.0 (rval2 |v0:9_st|)) (* ?x1281 |v1:8|)) ?x862) (- 8.0)) (<= (+ ?x1120 (* 0.0 (rval2 |v0:9_st|))) 13.0))))
 (let (($x1270 (and (and $x1188 (and $x1337 (<= ?x1351 3.0))) (or (<= ?x842 ?x1281) (and (<= ?x13 ?x1290) $x221)))))
 (let ((?x764 (- 5.0)))
 (let (($x954 (and (<= (+ (+ (* 17.0 |v5:4|) (* 10.0 |v3:6|)) (* 5.0 |v3:6|)) ?x550) (<= (+ (+ (* ?x1290 |v3:6|) (* 11.0 ?x824)) (* 12.0 |v3:6|)) ?x764))))
 (let (($x1329 (<= (+ (+ (* (- 9.0) (rval2 |v6:3_st|)) (* 18.0 |v7:2|)) (* 6.0 |v7:2|)) 6.0)))
 (let ((?x1181 (+ (+ (* (- 20.0) |v5:4|) (* 13.0 (rval2 |v4:5_st|))) (* (- 10.0) (rval2 |v6:3_st|)))))
 (let ((?x360 (- 9.0)))
 (let ((?x159 (+ (+ (* 3.0 |v7:2|) (* (- 18.0) (rval2 |v0:9_st|))) (* (- 7.0) |v9:0|))))
 (let (($x50 (or (<= (+ (+ (* ?x550 |v3:6|) (* ?x1135 |v3:6|)) (* 9.0 ?x862)) 14.0) (<= ?x159 ?x360))))
 (let (($x1012 (<= (+ (+ (* 11.0 (rval2 |v6:3_st|)) (* 3.0 |v3:6|)) (* 9.0 ?x824)) 10.0)))
 (let (($x406 (or $x1012 (<= (+ (+ (* 16.0 |v7:2|) (* ?x550 |v9:0|)) (* 17.0 |v5:4|)) 17.0))))
 (let ((?x966 (- 19.0)))
 (let (($x573 (<= (+ (+ (* 0.0 |v7:2|) (* 9.0 ?x824)) (* 6.0 (rval2 |v6:3_st|))) ?x966)))
 (let ((?x1023 (- 6.0)))
 (let ((?x129 (* ?x1023 |v7:2|)))
 (let (($x1129 (or (<= (+ (+ (* (- 14.0) |v9:0|) (* (- 14.0) ?x862)) ?x129) 0.0) $x573)))
 (let (($x557 (<= (+ (+ (* 10.0 |v3:6|) (* (- 16.0) (rval2 |v6:3_st|))) (* 7.0 |v1:8|)) 5.0)))
 (let (($x721 (<= (+ (+ (* 19.0 ?x824) (* 3.0 |v7:2|)) (* 18.0 (rval2 |v6:3_st|))) 18.0)))
 (let (($x1229 (<= (+ (+ (* 16.0 ?x862) (* (- 16.0) ?x824)) (* 18.0 ?x824)) 18.0)))
 (let ((?x759 (+ (+ (* 11.0 |v1:8|) (* (- 10.0) (rval2 |v0:9_st|))) (* (- 18.0) (rval2 |v6:3_st|)))))
 (let (($x676 (or (<= (+ (+ (* ?x1290 |v5:4|) (* ?x1290 |v7:2|)) (* ?x1281 ?x862)) 12.0) (<= (+ (+ (* ?x550 ?x824) (* ?x1281 |v7:2|)) (* 9.0 |v9:0|)) 20.0))))
 (let (($x297 (or (and $x676 (and (<= ?x759 14.0) $x1229)) (or (or $x721 $x557) $x1129))))
 (let (($x884 (or $x297 (or (or $x406 $x50) (and (and (<= ?x1181 16.0) $x1329) $x954)))))
 (let (($x945 (not (= |v0:9_st| (RMk1 val!814)))))
 (let (($x729 (not (= |v2:7_st| (RMk1 val!813)))))
 (let (($x655 (not (= |v4:5_st| (RMk1 val!812)))))
 (let (($x501 (not (= |v6:3_st| (RMk1 val!811)))))
 (let (($x699 (not (= |v8:1_st| (RMk1 val!810)))))
 (and $x699 $x501 $x655 $x729 $x945 (and $x884 (and $x1270 $x421)))))))))))))))))))))))))))))))))))))))))))))))))))))))))
 )
 )
 )
 )
 )
 )
 )
 )
 )
 )
(check-sat)
